benchmarks/bfuzz0/2161125991103109319299218183938927374.smt2
(set-logic QF_FP)
(declare-const x0 (_ FloatingPoint 11 53))
(declare-const x1 (_ FloatingPoint 11 53))
(declare-const x2 (_ FloatingPoint 11 53))
(declare-const x3 (_ FloatingPoint 11 53))
(declare-const x4 (_ FloatingPoint 11 53))
(declare-const x5 (_ FloatingPoint 11 53))
(declare-const x6 (_ FloatingPoint 11 53))
(declare-const x7 (_ FloatingPoint 11 53))
(declare-const x8 (_ FloatingPoint 11 53))
(declare-const x9 (_ FloatingPoint 11 53))
(declare-const x10 (_ FloatingPoint 11 53))
(declare-const x11 (_ FloatingPoint 11 53))
(declare-const x12 (_ FloatingPoint 11 53))
(declare-const x13 (_ FloatingPoint 11 53))
(assert (fp.gt (fp.mul RNE x6 x7) (fp.mul RNE x4 x10)))
(assert (fp.eq (fp.div RNE x3 x4) (fp.add RNE x7 x4)))
(assert (fp.lt (fp.div RNE x9 x6) (fp.neg x13)))
(assert (fp.lt (fp.div RNE x12 x1) (fp.mul RNE x4 x5)))
(assert (fp.geq (fp.mul RNE x4 x12) (fp.neg x12)))
(assert (fp.gt (fp.add RNE x7 x5) (fp.sub RNE x4 x0)))
(assert (fp.geq (fp.div RNE x11 x8) (fp.sub RNE x2 x10)))
(assert (fp.lt (fp.div RNE x2 x7) (fp.mul RNE x11 x9)))
(assert (fp.eq (fp.neg x5) (fp.div RNE x11 x12)))
(check-sat)
