db/data/2161125991103109319299218183938927374.z3.out
-------------------
2500.251421986
